DIMACS_lns/graph-1000-738.col
p edge 1000 1841
e 1 918
e 1 211
e 1 48
e 1 224
e 2 358
e 2 662
e 2 551
e 2 322
e 2 379
e 4 70
e 4 878
e 4 53
e 4 781
e 4 136
e 4 455
e 5 587
e 5 49
e 5 327
e 5 337
e 5 795
e 7 695
e 7 547
e 7 342
e 7 281
e 7 927
e 7 61
e 7 487
e 8 485
e 8 634
e 8 670
e 8 367
e 8 522
e 9 101
e 9 872
e 9 682
e 9 526
e 9 402
e 9 382
e 9 367
e 9 449
e 11 149
e 11 725
e 11 724
e 11 339
e 11 962
e 12 22
e 12 493
e 12 323
e 12 900
e 12 885
e 13 839
e 13 729
e 13 259
e 14 64
e 14 789
e 14 266
e 14 602
e 14 946
e 14 697
e 15 406
e 15 566
e 15 847
e 15 256
e 15 902
e 16 797
e 16 413
e 16 299
e 17 178
e 17 26
e 17 931
e 17 77
e 18 71
e 18 976
e 18 90
e 18 728
e 18 132
e 19 108
e 19 592
e 19 463
e 19 676
e 19 569
e 20 60
e 20 699
e 20 814
e 20 256
e 20 488
e 21 171
e 21 616
e 21 640
e 21 520
e 22 397
e 22 184
e 22 705
e 22 797
e 24 455
e 24 678
e 24 725
e 24 638
e 26 661
e 26 609
e 26 803
e 27 153
e 27 94
e 27 951
e 28 270
e 28 640
e 28 319
e 28 764
e 28 672
e 28 952
e 29 357
e 29 238
e 29 350
e 30 71
e 30 34
e 30 688
e 30 581
e 30 740
e 30 872
e 33 203
e 33 158
e 33 866
e 33 55
e 34 36
e 34 648
e 34 804
e 34 966
e 35 259
e 35 835
e 35 168
e 35 288
e 36 321
e 36 984
e 36 482
e 37 931
e 37 986
e 37 223
e 37 566
e 37 979
e 37 417
e 37 316
e 38 630
e 38 700
e 38 301
e 39 371
e 39 399
e 39 960
e 39 475
e 39 498
e 40 250
e 40 514
e 40 822
e 40 73
e 40 556
e 41 226
e 41 107
e 41 633
e 41 349
e 41 747
e 41 310
e 41 472
e 42 491
e 42 662
e 42 309
e 42 157
e 42 192
e 43 160
e 43 420
e 43 54
e 45 131
e 45 250
e 45 720
e 45 231
e 46 662
e 46 158
e 46 577
e 46 544
e 48 913
e 48 316
e 48 410
e 49 640
e 49 269
e 50 269
e 50 730
e 50 735
e 50 899
e 50 113
e 50 482
e 50 779
e 50 298
e 50 683
e 53 430
e 53 178
e 53 703
e 54 286
e 54 847
e 54 267
e 54 144
e 54 999
e 54 672
e 54 574
e 55 406
e 55 562
e 56 957
e 56 143
e 56 200
e 56 394
e 57 203
e 57 253
e 57 871
e 57 449
e 58 112
e 58 688
e 58 638
e 58 347
e 58 90
e 59 530
e 59 669
e 59 418
e 59 269
e 59 906
e 59 354
e 60 411
e 60 790
e 61 369
e 61 287
e 61 309
e 61 878
e 61 327
e 62 699
e 62 521
e 62 318
e 62 118
e 62 923
e 64 754
e 64 765
e 64 239
e 64 97
e 64 752
e 64 599
e 65 94
e 65 882
e 65 580
e 66 325
e 66 596
e 66 549
e 66 359
e 67 817
e 67 719
e 67 293
e 67 353
e 67 371
e 67 975
e 69 678
e 69 902
e 69 506
e 70 420
e 70 696
e 70 748
e 71 562
e 71 622
e 71 548
e 72 637
e 72 805
e 72 778
e 72 824
e 72 678
e 72 591
e 72 622
e 73 386
e 73 293
e 73 719
e 73 500
e 73 568
e 74 495
e 74 419
e 74 846
e 74 482
e 74 236
e 77 245
e 77 592
e 77 469
e 77 637
e 77 752
e 77 699
e 78 202
e 78 626
e 78 729
e 78 307
e 78 400
e 78 398
e 80 666
e 80 881
e 80 958
e 80 344
e 80 291
e 80 278
e 80 198
e 80 799
e 80 159
e 81 331
e 81 582
e 81 144
e 82 212
e 82 900
e 82 674
e 85 291
e 85 879
e 85 789
e 85 724
e 86 698
e 86 410
e 86 166
e 86 630
e 88 286
e 88 323
e 88 643
e 88 585
e 89 566
e 89 918
e 89 579
e 89 343
e 90 1000
e 91 859
e 91 142
e 91 997
e 91 255
e 91 947
e 91 325
e 91 673
e 93 629
e 93 336
e 93 508
e 93 951
e 93 579
e 94 560
e 94 734
e 95 818
e 95 184
e 95 458
e 96 672
e 96 318
e 96 916
e 97 659
e 97 728
e 97 409
e 97 354
e 100 247
e 100 322
e 100 154
e 100 481
e 100 131
e 101 691
e 101 726
e 101 479
e 101 223
e 101 456
e 101 434
e 105 226
e 105 934
e 105 596
e 106 946
e 106 207
e 106 301
e 106 305
e 106 402
e 106 523
e 106 127
e 107 168
e 107 677
e 107 782
e 107 419
e 107 537
e 107 653
e 108 328
e 108 721
e 108 577
e 108 451
e 108 242
e 108 325
e 108 551
e 109 527
e 109 939
e 109 393
e 109 651
e 110 405
e 110 198
e 110 556
e 110 998
e 111 327
e 111 366
e 111 792
e 112 894
e 112 715
e 112 201
e 112 287
e 113 804
e 113 778
e 113 143
e 113 292
e 113 191
e 113 618
e 114 540
e 114 982
e 114 705
e 114 944
e 115 493
e 115 936
e 115 116
e 115 946
e 115 291
e 116 326
e 116 821
e 116 691
e 116 431
e 117 510
e 117 372
e 117 417
e 117 541
e 118 556
e 118 405
e 118 190
e 118 432
e 118 673
e 119 916
e 119 319
e 119 503
e 119 164
e 119 937
e 120 423
e 120 306
e 120 312
e 121 421
e 121 728
e 121 682
e 121 800
e 122 451
e 122 770
e 122 151
e 122 934
e 123 600
e 123 959
e 123 1000
e 123 646
e 123 709
e 125 751
e 125 858
e 125 149
e 125 366
e 125 848
e 125 318
e 127 466
e 127 487
e 127 672
e 128 997
e 128 203
e 128 986
e 128 779
e 129 555
e 129 946
e 129 263
e 129 931
e 130 421
e 130 957
e 130 464
e 130 480
e 130 929
e 131 461
e 131 510
e 132 557
e 132 472
e 132 866
e 133 170
e 133 871
e 133 361
e 133 792
e 133 416
e 133 864
e 134 475
e 134 585
e 134 580
e 134 846
e 136 936
e 136 201
e 137 865
e 137 868
e 137 622
e 138 272
e 138 985
e 138 348
e 139 247
e 139 390
e 139 852
e 139 339
e 139 225
e 139 767
e 139 720
e 139 389
e 139 259
e 141 638
e 141 254
e 141 869
e 141 380
e 142 236
e 142 343
e 142 798
e 143 916
e 143 758
e 143 675
e 143 823
e 144 460
e 145 930
e 145 389
e 145 189
e 145 863
e 146 327
e 146 408
e 146 952
e 146 367
e 146 190
e 146 537
e 147 237
e 147 325
e 147 784
e 147 288
e 149 856
e 149 167
e 149 397
e 150 378
e 150 610
e 150 635
e 150 506
e 151 520
e 151 330
e 151 229
e 152 715
e 152 730
e 152 551
e 152 324
e 153 618
e 153 650
e 153 943
e 153 563
e 154 320
e 154 339
e 154 469
e 154 627
e 154 191
e 154 782
e 154 881
e 155 630
e 155 533
e 155 460
e 157 284
e 157 432
e 157 338
e 158 482
e 159 866
e 159 614
e 160 254
e 160 318
e 161 346
e 161 862
e 161 747
e 161 885
e 161 584
e 161 884
e 164 976
e 164 284
e 165 489
e 165 432
e 165 207
e 166 816
e 166 189
e 166 484
e 166 222
e 166 953
e 167 645
e 167 237
e 168 286
e 168 740
e 168 259
e 168 257
e 168 378
e 168 686
e 169 557
e 169 694
e 169 560
e 169 507
e 170 917
e 170 287
e 170 625
e 170 838
e 170 699
e 171 469
e 171 181
e 171 640
e 171 544
e 171 976
e 174 565
e 174 271
e 174 456
e 174 277
e 175 432
e 175 878
e 175 442
e 175 534
e 176 939
e 176 533
e 176 689
e 176 962
e 176 614
e 176 914
e 178 919
e 178 478
e 178 507
e 178 664
e 178 846
e 179 949
e 179 650
e 179 826
e 179 824
e 181 735
e 181 930
e 181 268
e 183 691
e 183 322
e 183 989
e 184 683
e 184 308
e 184 432
e 184 381
e 184 890
e 185 827
e 185 240
e 185 788
e 185 715
e 185 766
e 185 924
e 186 587
e 186 397
e 186 940
e 187 412
e 187 891
e 187 959
e 187 357
e 188 425
e 188 652
e 188 336
e 189 745
e 189 507
e 189 221
e 190 359
e 190 634
e 190 851
e 191 509
e 191 334
e 191 386
e 192 481
e 192 988
e 192 203
e 193 795
e 193 739
e 193 328
e 193 750
e 193 669
e 195 509
e 195 310
e 195 646
e 197 338
e 197 481
e 197 848
e 198 729
e 199 980
e 199 561
e 199 641
e 199 825
e 200 287
e 200 492
e 200 527
e 200 630
e 200 637
e 200 455
e 201 644
e 201 563
e 201 821
e 201 997
e 201 501
e 201 211
e 202 869
e 202 223
e 202 228
e 202 272
e 202 633
e 203 208
e 203 672
e 203 698
e 203 993
e 203 990
e 204 626
e 204 382
e 204 790
e 206 450
e 206 615
e 206 900
e 206 515
e 206 998
e 207 809
e 207 970
e 208 641
e 208 485
e 208 698
e 208 961
e 209 262
e 209 372
e 209 403
e 210 645
e 210 719
e 210 361
e 211 823
e 211 319
e 212 624
e 212 931
e 214 264
e 214 871
e 214 624
e 214 822
e 214 569
e 214 313
e 216 902
e 216 262
e 216 495
e 217 495
e 217 673
e 217 412
e 217 986
e 217 299
e 219 247
e 219 416
e 219 757
e 221 867
e 221 532
e 221 913
e 222 647
e 222 224
e 223 399
e 223 545
e 223 486
e 223 458
e 223 591
e 224 980
e 225 741
e 225 910
e 226 314
e 226 244
e 226 486
e 226 640
e 227 627
e 227 579
e 227 319
e 227 398
e 228 516
e 228 299
e 228 582
e 229 458
e 229 446
e 229 735
e 231 589
e 231 320
e 231 531
e 231 996
e 231 792
e 232 277
e 232 800
e 232 615
e 232 786
e 232 686
e 233 736
e 233 409
e 233 252
e 236 719
e 236 487
e 236 754
e 236 358
e 236 716
e 237 333
e 237 365
e 238 361
e 238 506
e 238 503
e 239 408
e 239 668
e 239 631
e 240 819
e 240 695
e 240 487
e 242 832
e 242 323
e 242 443
e 242 467
e 244 999
e 244 397
e 245 902
e 245 735
e 245 408
e 247 285
e 248 882
e 248 332
e 248 709
e 248 895
e 249 615
e 249 538
e 249 474
e 250 451
e 250 813
e 250 809
e 250 959
e 250 313
e 250 968
e 252 412
e 252 903
e 252 830
e 252 299
e 252 631
e 252 865
e 252 273
e 253 858
e 253 960
e 253 305
e 254 993
e 254 956
e 255 757
e 255 730
e 255 754
e 255 940
e 256 659
e 256 655
e 256 687
e 256 718
e 257 773
e 257 986
e 257 828
e 259 428
e 259 997
e 259 538
e 259 781
e 261 676
e 261 401
e 261 411
e 261 544
e 262 520
e 262 355
e 262 959
e 263 927
e 263 855
e 263 798
e 264 469
e 264 664
e 264 484
e 265 618
e 265 292
e 265 960
e 265 625
e 265 522
e 266 281
e 266 273
e 266 320
e 266 456
e 266 547
e 266 913
e 267 652
e 267 757
e 268 691
e 268 719
e 269 852
e 270 732
e 270 480
e 270 855
e 271 698
e 271 395
e 272 592
e 272 489
e 273 779
e 273 358
e 273 506
e 273 635
e 273 480
e 276 682
e 276 462
e 276 892
e 277 899
e 278 857
e 278 320
e 279 931
e 279 331
e 279 617
e 279 451
e 279 574
e 279 486
e 279 818
e 279 530
e 279 655
e 280 880
e 280 506
e 280 900
e 280 635
e 281 659
e 281 365
e 281 883
e 284 462
e 284 918
e 284 461
e 284 410
e 284 415
e 285 830
e 285 737
e 286 698
e 287 569
e 287 757
e 288 526
e 288 710
e 288 856
e 288 934
e 291 959
e 291 899
e 291 428
e 291 651
e 291 973
e 291 987
e 292 803
e 293 860
e 293 591
e 293 496
e 293 824
e 295 348
e 295 585
e 295 408
e 295 803
e 295 526
e 295 836
e 295 425
e 296 630
e 296 501
e 296 857
e 298 866
e 298 816
e 299 898
e 301 661
e 301 638
e 303 363
e 303 418
e 303 906
e 305 872
e 305 308
e 305 859
e 306 477
e 306 767
e 306 879
e 306 742
e 307 579
e 307 770
e 307 703
e 307 644
e 308 348
e 308 906
e 308 468
e 308 390
e 308 916
e 308 376
e 308 470
e 309 879
e 309 940
e 309 958
e 309 454
e 309 409
e 309 954
e 309 932
e 310 561
e 310 824
e 310 823
e 311 981
e 311 891
e 311 470
e 312 438
e 312 718
e 313 999
e 314 801
e 314 430
e 314 686
e 314 495
e 314 998
e 316 433
e 316 672
e 317 881
e 317 966
e 317 650
e 317 363
e 317 982
e 318 416
e 319 957
e 319 323
e 320 625
e 320 824
e 320 970
e 321 344
e 321 711
e 321 442
e 322 817
e 322 349
e 322 534
e 323 800
e 323 697
e 323 568
e 324 449
e 324 827
e 324 647
e 325 984
e 326 962
e 326 585
e 326 543
e 326 580
e 327 773
e 327 772
e 328 699
e 328 503
e 328 826
e 328 696
e 330 555
e 330 983
e 331 500
e 331 843
e 332 504
e 332 507
e 332 949
e 332 653
e 333 468
e 333 857
e 333 638
e 333 515
e 333 674
e 333 387
e 334 365
e 334 496
e 334 630
e 334 777
e 336 358
e 336 718
e 336 507
e 336 790
e 336 466
e 336 787
e 336 418
e 337 884
e 337 742
e 337 472
e 337 445
e 337 358
e 338 449
e 338 827
e 338 794
e 339 724
e 339 913
e 341 816
e 341 616
e 341 485
e 341 635
e 342 986
e 342 491
e 343 540
e 343 929
e 344 867
e 344 988
e 344 578
e 346 974
e 346 977
e 346 992
e 346 669
e 346 813
e 347 417
e 347 872
e 347 672
e 347 984
e 348 694
e 349 944
e 349 532
e 350 948
e 350 565
e 353 599
e 353 529
e 354 648
e 354 748
e 354 862
e 354 559
e 354 724
e 355 953
e 355 531
e 355 626
e 355 778
e 355 957
e 356 737
e 356 617
e 356 366
e 356 670
e 356 838
e 357 937
e 357 905
e 358 432
e 358 871
e 358 937
e 359 693
e 359 370
e 361 638
e 361 734
e 363 914
e 363 402
e 363 765
e 363 932
e 363 488
e 365 821
e 365 500
e 365 469
e 365 916
e 367 860
e 369 874
e 369 600
e 369 508
e 369 664
e 370 769
e 370 636
e 371 789
e 371 894
e 371 846
e 372 841
e 372 934
e 376 479
e 376 577
e 376 827
e 376 853
e 378 410
e 378 906
e 379 451
e 379 950
e 380 726
e 380 859
e 381 687
e 381 789
e 381 464
e 381 860
e 382 890
e 382 499
e 382 973
e 382 591
e 382 952
e 382 704
e 386 739
e 386 934
e 386 636
e 386 432
e 386 884
e 387 582
e 387 689
e 389 672
e 389 393
e 390 617
e 390 673
e 393 720
e 393 463
e 393 656
e 393 650
e 394 506
e 394 945
e 394 549
e 394 996
e 395 976
e 395 758
e 395 888
e 397 919
e 397 764
e 397 465
e 397 885
e 398 694
e 398 479
e 398 548
e 398 507
e 399 818
e 400 644
e 400 683
e 400 825
e 400 653
e 400 769
e 401 851
e 401 909
e 401 978
e 401 816
e 401 508
e 401 622
e 402 949
e 403 480
e 403 522
e 405 591
e 405 541
e 406 773
e 406 676
e 408 626
e 408 917
e 408 624
e 409 974
e 409 864
e 410 641
e 411 664
e 411 905
e 411 495
e 411 489
e 412 716
e 412 668
e 412 627
e 412 776
e 413 652
e 413 583
e 413 889
e 413 998
e 413 952
e 415 610
e 415 501
e 416 464
e 416 572
e 417 766
e 418 765
e 418 814
e 418 610
e 418 838
e 418 975
e 418 973
e 419 587
e 419 462
e 420 475
e 420 428
e 420 618
e 420 468
e 420 723
e 420 469
e 421 967
e 421 481
e 423 530
e 423 817
e 423 614
e 425 913
e 425 447
e 428 805
e 428 434
e 430 968
e 430 937
e 430 784
e 431 805
e 431 826
e 432 566
e 432 451
e 433 902
e 433 939
e 434 470
e 435 956
e 435 719
e 435 742
e 437 860
e 437 678
e 437 969
e 438 551
e 438 959
e 438 732
e 439 483
e 439 776
e 439 808
e 440 839
e 440 932
e 440 789
e 440 850
e 442 841
e 442 592
e 442 683
e 443 917
e 443 824
e 445 828
e 445 585
e 446 884
e 446 890
e 447 608
e 447 843
e 447 581
e 447 523
e 447 646
e 449 954
e 450 460
e 450 733
e 451 691
e 452 730
e 452 913
e 452 556
e 452 902
e 452 854
e 454 830
e 454 739
e 454 862
e 455 599
e 455 728
e 456 541
e 458 855
e 460 826
e 460 565
e 460 985
e 461 516
e 461 930
e 461 841
e 461 486
e 462 751
e 462 647
e 462 625
e 462 472
e 462 558
e 463 523
e 463 892
e 464 883
e 464 711
e 464 560
e 465 788
e 465 489
e 465 891
e 465 953
e 465 889
e 466 794
e 466 808
e 466 900
e 467 913
e 467 757
e 467 740
e 467 469
e 469 633
e 469 612
e 470 813
e 470 663
e 470 583
e 472 778
e 472 498
e 473 718
e 473 966
e 473 661
e 474 779
e 474 798
e 474 861
e 474 669
e 474 803
e 477 614
e 477 798
e 478 832
e 478 998
e 478 591
e 479 565
e 479 482
e 479 502
e 479 821
e 480 559
e 481 734
e 481 854
e 481 688
e 481 675
e 482 736
e 482 950
e 482 718
e 483 964
e 483 914
e 483 583
e 484 750
e 485 798
e 485 706
e 485 646
e 485 726
e 486 805
e 486 798
e 487 675
e 487 853
e 487 648
e 488 817
e 488 496
e 488 704
e 489 956
e 489 558
e 489 874
e 489 696
e 491 508
e 492 711
e 492 585
e 492 795
e 493 821
e 493 749
e 495 746
e 496 567
e 498 964
e 499 813
e 499 515
e 499 948
e 501 878
e 501 863
e 501 698
e 502 737
e 502 983
e 503 732
e 504 730
e 504 715
e 504 909
e 506 863
e 507 674
e 507 764
e 507 799
e 507 890
e 509 827
e 509 612
e 509 636
e 510 545
e 510 589
e 511 660
e 511 599
e 511 672
e 514 672
e 514 900
e 514 610
e 514 754
e 514 582
e 515 757
e 515 698
e 515 979
e 515 885
e 516 798
e 516 718
e 520 885
e 520 617
e 521 540
e 521 949
e 521 532
e 522 616
e 522 557
e 523 532
e 527 626
e 529 745
e 529 746
e 530 832
e 531 737
e 531 640
e 531 700
e 532 885
e 532 1000
e 532 562
e 532 730
e 533 882
e 534 909
e 534 919
e 534 677
e 537 787
e 537 986
e 538 650
e 540 822
e 540 711
e 541 543
e 541 905
e 541 803
e 541 970
e 541 688
e 542 961
e 542 561
e 542 924
e 543 582
e 543 720
e 543 697
e 543 591
e 545 867
e 547 728
e 548 673
e 549 724
e 549 993
e 549 924
e 550 849
e 550 646
e 550 997
e 553 589
e 553 809
e 553 725
e 555 682
e 555 670
e 557 818
e 557 966
e 557 980
e 558 782
e 558 899
e 559 721
e 560 681
e 561 816
e 562 874
e 563 923
e 563 616
e 563 947
e 565 569
e 565 970
e 566 585
e 567 631
e 567 832
e 568 625
e 568 899
e 568 996
e 569 693
e 572 724
e 572 987
e 574 894
e 574 827
e 577 854
e 578 853
e 578 660
e 578 977
e 578 637
e 579 913
e 579 825
e 580 984
e 581 906
e 581 990
e 582 890
e 582 704
e 582 836
e 583 976
e 583 965
e 583 656
e 583 890
e 584 906
e 584 874
e 584 930
e 585 865
e 585 600
e 587 641
e 591 975
e 592 998
e 592 957
e 592 745
e 596 659
e 596 804
e 599 709
e 599 937
e 599 869
e 599 749
e 600 659
e 600 992
e 600 808
e 602 656
e 602 786
e 605 773
e 605 855
e 605 851
e 608 633
e 608 794
e 609 792
e 609 851
e 610 906
e 610 821
e 610 633
e 610 989
e 610 996
e 612 992
e 612 769
e 613 790
e 613 772
e 613 954
e 615 617
e 615 976
e 616 624
e 616 700
e 616 786
e 616 773
e 617 784
e 618 861
e 625 681
e 625 745
e 625 822
e 626 956
e 627 700
e 628 860
e 628 817
e 628 740
e 629 805
e 629 959
e 630 818
e 630 968
e 630 892
e 630 691
e 631 794
e 631 844
e 631 723
e 634 975
e 634 750
e 635 902
e 635 695
e 635 716
e 636 987
e 636 790
e 636 918
e 637 920
e 637 932
e 637 987
e 637 866
e 638 817
e 638 967
e 641 892
e 641 705
e 641 777
e 643 678
e 643 939
e 644 726
e 644 956
e 644 660
e 644 852
e 645 904
e 645 723
e 646 749
e 647 704
e 647 883
e 647 826
e 647 993
e 648 884
e 651 705
e 652 961
e 652 889
e 652 694
e 653 861
e 655 721
e 656 666
e 656 816
e 656 888
e 660 881
e 662 819
e 662 949
e 662 852
e 663 693
e 663 909
e 664 937
e 666 885
e 668 832
e 668 888
e 669 786
e 670 961
e 670 790
e 670 751
e 672 733
e 673 964
e 673 905
e 673 910
e 674 781
e 675 978
e 675 851
e 675 893
e 676 718
e 677 797
e 678 943
e 681 864
e 682 754
e 683 835
e 686 980
e 686 786
e 687 902
e 689 710
e 691 885
e 691 699
e 693 989
e 696 882
e 697 944
e 697 859
e 698 976
e 698 910
e 699 973
e 699 974
e 700 805
e 702 898
e 702 924
e 702 764
e 703 781
e 703 947
e 705 715
e 705 778
e 705 781
e 706 773
e 706 990
e 710 989
e 711 739
e 711 864
e 715 927
e 716 944
e 718 913
e 719 906
e 719 746
e 723 980
e 726 835
e 729 985
e 729 929
e 729 741
e 731 969
e 731 751
e 731 782
e 731 741
e 732 846
e 732 778
e 733 789
e 733 981
e 735 767
e 736 983
e 736 832
e 736 800
e 736 813
e 736 865
e 736 914
e 737 962
e 737 945
e 740 843
e 742 765
e 742 981
e 742 850
e 745 891
e 745 900
e 746 801
e 747 844
e 747 800
e 748 849
e 749 880
e 749 944
e 751 982
e 752 881
e 752 853
e 752 946
e 754 951
e 754 799
e 758 795
e 758 989
e 764 861
e 765 920
e 766 932
e 769 847
e 770 889
e 772 889
e 772 787
e 773 827
e 773 946
e 776 825
e 776 989
e 776 916
e 777 954
e 778 895
e 779 930
e 782 985
e 782 868
e 786 969
e 786 854
e 787 920
e 787 849
e 787 968
e 788 828
e 790 936
e 792 976
e 795 914
e 795 856
e 795 891
e 798 913
e 798 949
e 798 953
e 799 965
e 799 993
e 799 836
e 800 949
e 801 821
e 805 979
e 808 902
e 813 849
e 814 893
e 816 987
e 816 977
e 819 891
e 821 985
e 822 903
e 822 943
e 822 865
e 823 979
e 823 961
e 824 960
e 826 917
e 828 872
e 830 847
e 832 980
e 832 903
e 832 923
e 836 978
e 839 868
e 844 974
e 844 895
e 848 883
e 850 943
e 851 949
e 852 890
e 853 893
e 853 959
e 853 872
e 854 934
e 855 977
e 855 954
e 857 948
e 858 965
e 858 872
e 858 930
e 860 923
e 863 936
e 864 904
e 865 958
e 868 981
e 872 966
e 872 923
e 880 894
e 881 998
e 881 898
e 882 996
e 884 899
e 884 902
e 891 906
e 893 977
e 894 937
e 898 905
e 904 950
e 906 954
e 906 956
e 909 950
e 909 945
e 916 988
e 919 967
e 940 973
e 943 979
e 947 967
e 959 993
e 959 984
e 960 982
e 967 985
e 977 978
e 980 982
