txt_Ins/graph-1000-738.txt
n 1000
e 0 917
e 0 210
e 0 47
e 0 223
e 1 357
e 1 661
e 1 550
e 1 321
e 1 378
e 3 69
e 3 877
e 3 52
e 3 780
e 3 135
e 3 454
e 4 586
e 4 48
e 4 326
e 4 336
e 4 794
e 6 694
e 6 546
e 6 341
e 6 280
e 6 926
e 6 60
e 6 486
e 7 484
e 7 633
e 7 669
e 7 366
e 7 521
e 8 100
e 8 871
e 8 681
e 8 525
e 8 401
e 8 381
e 8 366
e 8 448
e 10 148
e 10 724
e 10 723
e 10 338
e 10 961
e 11 21
e 11 492
e 11 322
e 11 899
e 11 884
e 12 838
e 12 728
e 12 258
e 13 63
e 13 788
e 13 265
e 13 601
e 13 945
e 13 696
e 14 405
e 14 565
e 14 846
e 14 255
e 14 901
e 15 796
e 15 412
e 15 298
e 16 177
e 16 25
e 16 930
e 16 76
e 17 70
e 17 975
e 17 89
e 17 727
e 17 131
e 18 107
e 18 591
e 18 462
e 18 675
e 18 568
e 19 59
e 19 698
e 19 813
e 19 255
e 19 487
e 20 170
e 20 615
e 20 639
e 20 519
e 21 396
e 21 183
e 21 704
e 21 796
e 23 454
e 23 677
e 23 724
e 23 637
e 25 660
e 25 608
e 25 802
e 26 152
e 26 93
e 26 950
e 27 269
e 27 639
e 27 318
e 27 763
e 27 671
e 27 951
e 28 356
e 28 237
e 28 349
e 29 70
e 29 33
e 29 687
e 29 580
e 29 739
e 29 871
e 32 202
e 32 157
e 32 865
e 32 54
e 33 35
e 33 647
e 33 803
e 33 965
e 34 258
e 34 834
e 34 167
e 34 287
e 35 320
e 35 983
e 35 481
e 36 930
e 36 985
e 36 222
e 36 565
e 36 978
e 36 416
e 36 315
e 37 629
e 37 699
e 37 300
e 38 370
e 38 398
e 38 959
e 38 474
e 38 497
e 39 249
e 39 513
e 39 821
e 39 72
e 39 555
e 40 225
e 40 106
e 40 632
e 40 348
e 40 746
e 40 309
e 40 471
e 41 490
e 41 661
e 41 308
e 41 156
e 41 191
e 42 159
e 42 419
e 42 53
e 44 130
e 44 249
e 44 719
e 44 230
e 45 661
e 45 157
e 45 576
e 45 543
e 47 912
e 47 315
e 47 409
e 48 639
e 48 268
e 49 268
e 49 729
e 49 734
e 49 898
e 49 112
e 49 481
e 49 778
e 49 297
e 49 682
e 52 429
e 52 177
e 52 702
e 53 285
e 53 846
e 53 266
e 53 143
e 53 998
e 53 671
e 53 573
e 54 405
e 54 561
e 55 956
e 55 142
e 55 199
e 55 393
e 56 202
e 56 252
e 56 870
e 56 448
e 57 111
e 57 687
e 57 637
e 57 346
e 57 89
e 58 529
e 58 668
e 58 417
e 58 268
e 58 905
e 58 353
e 59 410
e 59 789
e 60 368
e 60 286
e 60 308
e 60 877
e 60 326
e 61 698
e 61 520
e 61 317
e 61 117
e 61 922
e 63 753
e 63 764
e 63 238
e 63 96
e 63 751
e 63 598
e 64 93
e 64 881
e 64 579
e 65 324
e 65 595
e 65 548
e 65 358
e 66 816
e 66 718
e 66 292
e 66 352
e 66 370
e 66 974
e 68 677
e 68 901
e 68 505
e 69 419
e 69 695
e 69 747
e 70 561
e 70 621
e 70 547
e 71 636
e 71 804
e 71 777
e 71 823
e 71 677
e 71 590
e 71 621
e 72 385
e 72 292
e 72 718
e 72 499
e 72 567
e 73 494
e 73 418
e 73 845
e 73 481
e 73 235
e 76 244
e 76 591
e 76 468
e 76 636
e 76 751
e 76 698
e 77 201
e 77 625
e 77 728
e 77 306
e 77 399
e 77 397
e 79 665
e 79 880
e 79 957
e 79 343
e 79 290
e 79 277
e 79 197
e 79 798
e 79 158
e 80 330
e 80 581
e 80 143
e 81 211
e 81 899
e 81 673
e 84 290
e 84 878
e 84 788
e 84 723
e 85 697
e 85 409
e 85 165
e 85 629
e 87 285
e 87 322
e 87 642
e 87 584
e 88 565
e 88 917
e 88 578
e 88 342
e 89 999
e 90 858
e 90 141
e 90 996
e 90 254
e 90 946
e 90 324
e 90 672
e 92 628
e 92 335
e 92 507
e 92 950
e 92 578
e 93 559
e 93 733
e 94 817
e 94 183
e 94 457
e 95 671
e 95 317
e 95 915
e 96 658
e 96 727
e 96 408
e 96 353
e 99 246
e 99 321
e 99 153
e 99 480
e 99 130
e 100 690
e 100 725
e 100 478
e 100 222
e 100 455
e 100 433
e 104 225
e 104 933
e 104 595
e 105 945
e 105 206
e 105 300
e 105 304
e 105 401
e 105 522
e 105 126
e 106 167
e 106 676
e 106 781
e 106 418
e 106 536
e 106 652
e 107 327
e 107 720
e 107 576
e 107 450
e 107 241
e 107 324
e 107 550
e 108 526
e 108 938
e 108 392
e 108 650
e 109 404
e 109 197
e 109 555
e 109 997
e 110 326
e 110 365
e 110 791
e 111 893
e 111 714
e 111 200
e 111 286
e 112 803
e 112 777
e 112 142
e 112 291
e 112 190
e 112 617
e 113 539
e 113 981
e 113 704
e 113 943
e 114 492
e 114 935
e 114 115
e 114 945
e 114 290
e 115 325
e 115 820
e 115 690
e 115 430
e 116 509
e 116 371
e 116 416
e 116 540
e 117 555
e 117 404
e 117 189
e 117 431
e 117 672
e 118 915
e 118 318
e 118 502
e 118 163
e 118 936
e 119 422
e 119 305
e 119 311
e 120 420
e 120 727
e 120 681
e 120 799
e 121 450
e 121 769
e 121 150
e 121 933
e 122 599
e 122 958
e 122 999
e 122 645
e 122 708
e 124 750
e 124 857
e 124 148
e 124 365
e 124 847
e 124 317
e 126 465
e 126 486
e 126 671
e 127 996
e 127 202
e 127 985
e 127 778
e 128 554
e 128 945
e 128 262
e 128 930
e 129 420
e 129 956
e 129 463
e 129 479
e 129 928
e 130 460
e 130 509
e 131 556
e 131 471
e 131 865
e 132 169
e 132 870
e 132 360
e 132 791
e 132 415
e 132 863
e 133 474
e 133 584
e 133 579
e 133 845
e 135 935
e 135 200
e 136 864
e 136 867
e 136 621
e 137 271
e 137 984
e 137 347
e 138 246
e 138 389
e 138 851
e 138 338
e 138 224
e 138 766
e 138 719
e 138 388
e 138 258
e 140 637
e 140 253
e 140 868
e 140 379
e 141 235
e 141 342
e 141 797
e 142 915
e 142 757
e 142 674
e 142 822
e 143 459
e 144 929
e 144 388
e 144 188
e 144 862
e 145 326
e 145 407
e 145 951
e 145 366
e 145 189
e 145 536
e 146 236
e 146 324
e 146 783
e 146 287
e 148 855
e 148 166
e 148 396
e 149 377
e 149 609
e 149 634
e 149 505
e 150 519
e 150 329
e 150 228
e 151 714
e 151 729
e 151 550
e 151 323
e 152 617
e 152 649
e 152 942
e 152 562
e 153 319
e 153 338
e 153 468
e 153 626
e 153 190
e 153 781
e 153 880
e 154 629
e 154 532
e 154 459
e 156 283
e 156 431
e 156 337
e 157 481
e 158 865
e 158 613
e 159 253
e 159 317
e 160 345
e 160 861
e 160 746
e 160 884
e 160 583
e 160 883
e 163 975
e 163 283
e 164 488
e 164 431
e 164 206
e 165 815
e 165 188
e 165 483
e 165 221
e 165 952
e 166 644
e 166 236
e 167 285
e 167 739
e 167 258
e 167 256
e 167 377
e 167 685
e 168 556
e 168 693
e 168 559
e 168 506
e 169 916
e 169 286
e 169 624
e 169 837
e 169 698
e 170 468
e 170 180
e 170 639
e 170 543
e 170 975
e 173 564
e 173 270
e 173 455
e 173 276
e 174 431
e 174 877
e 174 441
e 174 533
e 175 938
e 175 532
e 175 688
e 175 961
e 175 613
e 175 913
e 177 918
e 177 477
e 177 506
e 177 663
e 177 845
e 178 948
e 178 649
e 178 825
e 178 823
e 180 734
e 180 929
e 180 267
e 182 690
e 182 321
e 182 988
e 183 682
e 183 307
e 183 431
e 183 380
e 183 889
e 184 826
e 184 239
e 184 787
e 184 714
e 184 765
e 184 923
e 185 586
e 185 396
e 185 939
e 186 411
e 186 890
e 186 958
e 186 356
e 187 424
e 187 651
e 187 335
e 188 744
e 188 506
e 188 220
e 189 358
e 189 633
e 189 850
e 190 508
e 190 333
e 190 385
e 191 480
e 191 987
e 191 202
e 192 794
e 192 738
e 192 327
e 192 749
e 192 668
e 194 508
e 194 309
e 194 645
e 196 337
e 196 480
e 196 847
e 197 728
e 198 979
e 198 560
e 198 640
e 198 824
e 199 286
e 199 491
e 199 526
e 199 629
e 199 636
e 199 454
e 200 643
e 200 562
e 200 820
e 200 996
e 200 500
e 200 210
e 201 868
e 201 222
e 201 227
e 201 271
e 201 632
e 202 207
e 202 671
e 202 697
e 202 992
e 202 989
e 203 625
e 203 381
e 203 789
e 205 449
e 205 614
e 205 899
e 205 514
e 205 997
e 206 808
e 206 969
e 207 640
e 207 484
e 207 697
e 207 960
e 208 261
e 208 371
e 208 402
e 209 644
e 209 718
e 209 360
e 210 822
e 210 318
e 211 623
e 211 930
e 213 263
e 213 870
e 213 623
e 213 821
e 213 568
e 213 312
e 215 901
e 215 261
e 215 494
e 216 494
e 216 672
e 216 411
e 216 985
e 216 298
e 218 246
e 218 415
e 218 756
e 220 866
e 220 531
e 220 912
e 221 646
e 221 223
e 222 398
e 222 544
e 222 485
e 222 457
e 222 590
e 223 979
e 224 740
e 224 909
e 225 313
e 225 243
e 225 485
e 225 639
e 226 626
e 226 578
e 226 318
e 226 397
e 227 515
e 227 298
e 227 581
e 228 457
e 228 445
e 228 734
e 230 588
e 230 319
e 230 530
e 230 995
e 230 791
e 231 276
e 231 799
e 231 614
e 231 785
e 231 685
e 232 735
e 232 408
e 232 251
e 235 718
e 235 486
e 235 753
e 235 357
e 235 715
e 236 332
e 236 364
e 237 360
e 237 505
e 237 502
e 238 407
e 238 667
e 238 630
e 239 818
e 239 694
e 239 486
e 241 831
e 241 322
e 241 442
e 241 466
e 243 998
e 243 396
e 244 901
e 244 734
e 244 407
e 246 284
e 247 881
e 247 331
e 247 708
e 247 894
e 248 614
e 248 537
e 248 473
e 249 450
e 249 812
e 249 808
e 249 958
e 249 312
e 249 967
e 251 411
e 251 902
e 251 829
e 251 298
e 251 630
e 251 864
e 251 272
e 252 857
e 252 959
e 252 304
e 253 992
e 253 955
e 254 756
e 254 729
e 254 753
e 254 939
e 255 658
e 255 654
e 255 686
e 255 717
e 256 772
e 256 985
e 256 827
e 258 427
e 258 996
e 258 537
e 258 780
e 260 675
e 260 400
e 260 410
e 260 543
e 261 519
e 261 354
e 261 958
e 262 926
e 262 854
e 262 797
e 263 468
e 263 663
e 263 483
e 264 617
e 264 291
e 264 959
e 264 624
e 264 521
e 265 280
e 265 272
e 265 319
e 265 455
e 265 546
e 265 912
e 266 651
e 266 756
e 267 690
e 267 718
e 268 851
e 269 731
e 269 479
e 269 854
e 270 697
e 270 394
e 271 591
e 271 488
e 272 778
e 272 357
e 272 505
e 272 634
e 272 479
e 275 681
e 275 461
e 275 891
e 276 898
e 277 856
e 277 319
e 278 930
e 278 330
e 278 616
e 278 450
e 278 573
e 278 485
e 278 817
e 278 529
e 278 654
e 279 879
e 279 505
e 279 899
e 279 634
e 280 658
e 280 364
e 280 882
e 283 461
e 283 917
e 283 460
e 283 409
e 283 414
e 284 829
e 284 736
e 285 697
e 286 568
e 286 756
e 287 525
e 287 709
e 287 855
e 287 933
e 290 958
e 290 898
e 290 427
e 290 650
e 290 972
e 290 986
e 291 802
e 292 859
e 292 590
e 292 495
e 292 823
e 294 347
e 294 584
e 294 407
e 294 802
e 294 525
e 294 835
e 294 424
e 295 629
e 295 500
e 295 856
e 297 865
e 297 815
e 298 897
e 300 660
e 300 637
e 302 362
e 302 417
e 302 905
e 304 871
e 304 307
e 304 858
e 305 476
e 305 766
e 305 878
e 305 741
e 306 578
e 306 769
e 306 702
e 306 643
e 307 347
e 307 905
e 307 467
e 307 389
e 307 915
e 307 375
e 307 469
e 308 878
e 308 939
e 308 957
e 308 453
e 308 408
e 308 953
e 308 931
e 309 560
e 309 823
e 309 822
e 310 980
e 310 890
e 310 469
e 311 437
e 311 717
e 312 998
e 313 800
e 313 429
e 313 685
e 313 494
e 313 997
e 315 432
e 315 671
e 316 880
e 316 965
e 316 649
e 316 362
e 316 981
e 317 415
e 318 956
e 318 322
e 319 624
e 319 823
e 319 969
e 320 343
e 320 710
e 320 441
e 321 816
e 321 348
e 321 533
e 322 799
e 322 696
e 322 567
e 323 448
e 323 826
e 323 646
e 324 983
e 325 961
e 325 584
e 325 542
e 325 579
e 326 772
e 326 771
e 327 698
e 327 502
e 327 825
e 327 695
e 329 554
e 329 982
e 330 499
e 330 842
e 331 503
e 331 506
e 331 948
e 331 652
e 332 467
e 332 856
e 332 637
e 332 514
e 332 673
e 332 386
e 333 364
e 333 495
e 333 629
e 333 776
e 335 357
e 335 717
e 335 506
e 335 789
e 335 465
e 335 786
e 335 417
e 336 883
e 336 741
e 336 471
e 336 444
e 336 357
e 337 448
e 337 826
e 337 793
e 338 723
e 338 912
e 340 815
e 340 615
e 340 484
e 340 634
e 341 985
e 341 490
e 342 539
e 342 928
e 343 866
e 343 987
e 343 577
e 345 973
e 345 976
e 345 991
e 345 668
e 345 812
e 346 416
e 346 871
e 346 671
e 346 983
e 347 693
e 348 943
e 348 531
e 349 947
e 349 564
e 352 598
e 352 528
e 353 647
e 353 747
e 353 861
e 353 558
e 353 723
e 354 952
e 354 530
e 354 625
e 354 777
e 354 956
e 355 736
e 355 616
e 355 365
e 355 669
e 355 837
e 356 936
e 356 904
e 357 431
e 357 870
e 357 936
e 358 692
e 358 369
e 360 637
e 360 733
e 362 913
e 362 401
e 362 764
e 362 931
e 362 487
e 364 820
e 364 499
e 364 468
e 364 915
e 366 859
e 368 873
e 368 599
e 368 507
e 368 663
e 369 768
e 369 635
e 370 788
e 370 893
e 370 845
e 371 840
e 371 933
e 375 478
e 375 576
e 375 826
e 375 852
e 377 409
e 377 905
e 378 450
e 378 949
e 379 725
e 379 858
e 380 686
e 380 788
e 380 463
e 380 859
e 381 889
e 381 498
e 381 972
e 381 590
e 381 951
e 381 703
e 385 738
e 385 933
e 385 635
e 385 431
e 385 883
e 386 581
e 386 688
e 388 671
e 388 392
e 389 616
e 389 672
e 392 719
e 392 462
e 392 655
e 392 649
e 393 505
e 393 944
e 393 548
e 393 995
e 394 975
e 394 757
e 394 887
e 396 918
e 396 763
e 396 464
e 396 884
e 397 693
e 397 478
e 397 547
e 397 506
e 398 817
e 399 643
e 399 682
e 399 824
e 399 652
e 399 768
e 400 850
e 400 908
e 400 977
e 400 815
e 400 507
e 400 621
e 401 948
e 402 479
e 402 521
e 404 590
e 404 540
e 405 772
e 405 675
e 407 625
e 407 916
e 407 623
e 408 973
e 408 863
e 409 640
e 410 663
e 410 904
e 410 494
e 410 488
e 411 715
e 411 667
e 411 626
e 411 775
e 412 651
e 412 582
e 412 888
e 412 997
e 412 951
e 414 609
e 414 500
e 415 463
e 415 571
e 416 765
e 417 764
e 417 813
e 417 609
e 417 837
e 417 974
e 417 972
e 418 586
e 418 461
e 419 474
e 419 427
e 419 617
e 419 467
e 419 722
e 419 468
e 420 966
e 420 480
e 422 529
e 422 816
e 422 613
e 424 912
e 424 446
e 427 804
e 427 433
e 429 967
e 429 936
e 429 783
e 430 804
e 430 825
e 431 565
e 431 450
e 432 901
e 432 938
e 433 469
e 434 955
e 434 718
e 434 741
e 436 859
e 436 677
e 436 968
e 437 550
e 437 958
e 437 731
e 438 482
e 438 775
e 438 807
e 439 838
e 439 931
e 439 788
e 439 849
e 441 840
e 441 591
e 441 682
e 442 916
e 442 823
e 444 827
e 444 584
e 445 883
e 445 889
e 446 607
e 446 842
e 446 580
e 446 522
e 446 645
e 448 953
e 449 459
e 449 732
e 450 690
e 451 729
e 451 912
e 451 555
e 451 901
e 451 853
e 453 829
e 453 738
e 453 861
e 454 598
e 454 727
e 455 540
e 457 854
e 459 825
e 459 564
e 459 984
e 460 515
e 460 929
e 460 840
e 460 485
e 461 750
e 461 646
e 461 624
e 461 471
e 461 557
e 462 522
e 462 891
e 463 882
e 463 710
e 463 559
e 464 787
e 464 488
e 464 890
e 464 952
e 464 888
e 465 793
e 465 807
e 465 899
e 466 912
e 466 756
e 466 739
e 466 468
e 468 632
e 468 611
e 469 812
e 469 662
e 469 582
e 471 777
e 471 497
e 472 717
e 472 965
e 472 660
e 473 778
e 473 797
e 473 860
e 473 668
e 473 802
e 476 613
e 476 797
e 477 831
e 477 997
e 477 590
e 478 564
e 478 481
e 478 501
e 478 820
e 479 558
e 480 733
e 480 853
e 480 687
e 480 674
e 481 735
e 481 949
e 481 717
e 482 963
e 482 913
e 482 582
e 483 749
e 484 797
e 484 705
e 484 645
e 484 725
e 485 804
e 485 797
e 486 674
e 486 852
e 486 647
e 487 816
e 487 495
e 487 703
e 488 955
e 488 557
e 488 873
e 488 695
e 490 507
e 491 710
e 491 584
e 491 794
e 492 820
e 492 748
e 494 745
e 495 566
e 497 963
e 498 812
e 498 514
e 498 947
e 500 877
e 500 862
e 500 697
e 501 736
e 501 982
e 502 731
e 503 729
e 503 714
e 503 908
e 505 862
e 506 673
e 506 763
e 506 798
e 506 889
e 508 826
e 508 611
e 508 635
e 509 544
e 509 588
e 510 659
e 510 598
e 510 671
e 513 671
e 513 899
e 513 609
e 513 753
e 513 581
e 514 756
e 514 697
e 514 978
e 514 884
e 515 797
e 515 717
e 519 884
e 519 616
e 520 539
e 520 948
e 520 531
e 521 615
e 521 556
e 522 531
e 526 625
e 528 744
e 528 745
e 529 831
e 530 736
e 530 639
e 530 699
e 531 884
e 531 999
e 531 561
e 531 729
e 532 881
e 533 908
e 533 918
e 533 676
e 536 786
e 536 985
e 537 649
e 539 821
e 539 710
e 540 542
e 540 904
e 540 802
e 540 969
e 540 687
e 541 960
e 541 560
e 541 923
e 542 581
e 542 719
e 542 696
e 542 590
e 544 866
e 546 727
e 547 672
e 548 723
e 548 992
e 548 923
e 549 848
e 549 645
e 549 996
e 552 588
e 552 808
e 552 724
e 554 681
e 554 669
e 556 817
e 556 965
e 556 979
e 557 781
e 557 898
e 558 720
e 559 680
e 560 815
e 561 873
e 562 922
e 562 615
e 562 946
e 564 568
e 564 969
e 565 584
e 566 630
e 566 831
e 567 624
e 567 898
e 567 995
e 568 692
e 571 723
e 571 986
e 573 893
e 573 826
e 576 853
e 577 852
e 577 659
e 577 976
e 577 636
e 578 912
e 578 824
e 579 983
e 580 905
e 580 989
e 581 889
e 581 703
e 581 835
e 582 975
e 582 964
e 582 655
e 582 889
e 583 905
e 583 873
e 583 929
e 584 864
e 584 599
e 586 640
e 590 974
e 591 997
e 591 956
e 591 744
e 595 658
e 595 803
e 598 708
e 598 936
e 598 868
e 598 748
e 599 658
e 599 991
e 599 807
e 601 655
e 601 785
e 604 772
e 604 854
e 604 850
e 607 632
e 607 793
e 608 791
e 608 850
e 609 905
e 609 820
e 609 632
e 609 988
e 609 995
e 611 991
e 611 768
e 612 789
e 612 771
e 612 953
e 614 616
e 614 975
e 615 623
e 615 699
e 615 785
e 615 772
e 616 783
e 617 860
e 624 680
e 624 744
e 624 821
e 625 955
e 626 699
e 627 859
e 627 816
e 627 739
e 628 804
e 628 958
e 629 817
e 629 967
e 629 891
e 629 690
e 630 793
e 630 843
e 630 722
e 633 974
e 633 749
e 634 901
e 634 694
e 634 715
e 635 986
e 635 789
e 635 917
e 636 919
e 636 931
e 636 986
e 636 865
e 637 816
e 637 966
e 640 891
e 640 704
e 640 776
e 642 677
e 642 938
e 643 725
e 643 955
e 643 659
e 643 851
e 644 903
e 644 722
e 645 748
e 646 703
e 646 882
e 646 825
e 646 992
e 647 883
e 650 704
e 651 960
e 651 888
e 651 693
e 652 860
e 654 720
e 655 665
e 655 815
e 655 887
e 659 880
e 661 818
e 661 948
e 661 851
e 662 692
e 662 908
e 663 936
e 665 884
e 667 831
e 667 887
e 668 785
e 669 960
e 669 789
e 669 750
e 671 732
e 672 963
e 672 904
e 672 909
e 673 780
e 674 977
e 674 850
e 674 892
e 675 717
e 676 796
e 677 942
e 680 863
e 681 753
e 682 834
e 685 979
e 685 785
e 686 901
e 688 709
e 690 884
e 690 698
e 692 988
e 695 881
e 696 943
e 696 858
e 697 975
e 697 909
e 698 972
e 698 973
e 699 804
e 701 897
e 701 923
e 701 763
e 702 780
e 702 946
e 704 714
e 704 777
e 704 780
e 705 772
e 705 989
e 709 988
e 710 738
e 710 863
e 714 926
e 715 943
e 717 912
e 718 905
e 718 745
e 722 979
e 725 834
e 728 984
e 728 928
e 728 740
e 730 968
e 730 750
e 730 781
e 730 740
e 731 845
e 731 777
e 732 788
e 732 980
e 734 766
e 735 982
e 735 831
e 735 799
e 735 812
e 735 864
e 735 913
e 736 961
e 736 944
e 739 842
e 741 764
e 741 980
e 741 849
e 744 890
e 744 899
e 745 800
e 746 843
e 746 799
e 747 848
e 748 879
e 748 943
e 750 981
e 751 880
e 751 852
e 751 945
e 753 950
e 753 798
e 757 794
e 757 988
e 763 860
e 764 919
e 765 931
e 768 846
e 769 888
e 771 888
e 771 786
e 772 826
e 772 945
e 775 824
e 775 988
e 775 915
e 776 953
e 777 894
e 778 929
e 781 984
e 781 867
e 785 968
e 785 853
e 786 919
e 786 848
e 786 967
e 787 827
e 789 935
e 791 975
e 794 913
e 794 855
e 794 890
e 797 912
e 797 948
e 797 952
e 798 964
e 798 992
e 798 835
e 799 948
e 800 820
e 804 978
e 807 901
e 812 848
e 813 892
e 815 986
e 815 976
e 818 890
e 820 984
e 821 902
e 821 942
e 821 864
e 822 978
e 822 960
e 823 959
e 825 916
e 827 871
e 829 846
e 831 979
e 831 902
e 831 922
e 835 977
e 838 867
e 843 973
e 843 894
e 847 882
e 849 942
e 850 948
e 851 889
e 852 892
e 852 958
e 852 871
e 853 933
e 854 976
e 854 953
e 856 947
e 857 964
e 857 871
e 857 929
e 859 922
e 862 935
e 863 903
e 864 957
e 867 980
e 871 965
e 871 922
e 879 893
e 880 997
e 880 897
e 881 995
e 883 898
e 883 901
e 890 905
e 892 976
e 893 936
e 897 904
e 903 949
e 905 953
e 905 955
e 908 949
e 908 944
e 915 987
e 918 966
e 939 972
e 942 978
e 946 966
e 958 992
e 958 983
e 959 981
e 966 984
e 976 977
e 979 981
